70
1 0 43
2 0 77
2 1 35
3 0 75
3 1 77
3 2 30
4 0 63
4 1 44
4 2 33
4 3 22
5 0 63
5 1 66
5 2 7
5 3 4
5 4 17
6 0 13
6 1 13
6 2 32
6 3 39
6 4 2
6 5 23
7 0 44
7 1 7
7 2 68
7 3 56
7 4 39
7 5 36
7 6 57
8 0 32
8 1 52
8 2 64
8 3 36
8 4 18
8 5 51
8 6 24
8 7 52
9 0 71
9 1 65
9 2 79
9 3 72
9 4 12
9 5 75
9 6 53
9 7 13
9 8 75
10 0 11
10 1 69
10 2 1
10 3 76
10 4 74
10 5 9
10 6 26
10 7 71
10 8 78
10 9 44
11 0 45
11 1 61
11 2 80
11 3 34
11 4 49
11 5 43
11 6 63
11 7 73
11 8 12
11 9 13
11 10 28
12 0 49
12 1 52
12 2 75
12 3 57
12 4 28
12 5 45
12 6 38
12 7 61
12 8 21
12 9 47
12 10 78
12 11 24
13 0 21
13 1 57
13 2 26
13 3 78
13 4 43
13 5 43
13 6 36
13 7 3
13 8 28
13 9 14
13 10 64
13 11 71
13 12 45
14 0 48
14 1 75
14 2 76
14 3 46
14 4 29
14 5 56
14 6 23
14 7 42
14 8 73
14 9 12
14 10 4
14 11 7
14 12 8
14 13 47
15 0 46
15 1 4
15 2 32
15 3 12
15 4 71
15 5 52
15 6 7
15 7 65
15 8 66
15 9 25
15 10 36
15 11 71
15 12 72
15 13 11
15 14 45
16 0 19
16 1 75
16 2 40
16 3 28
16 4 62
16 5 68
16 6 40
16 7 77
16 8 14
16 9 11
16 10 80
16 11 53
16 12 46
16 13 5
16 14 62
16 15 60
17 0 71
17 1 40
17 2 63
17 3 17
17 4 8
17 5 70
17 6 51
17 7 14
17 8 22
17 9 72
17 10 60
17 11 20
17 12 43
17 13 59
17 14 74
17 15 32
17 16 13
18 0 78
18 1 8
18 2 3
18 3 31
18 4 44
18 5 55
18 6 23
18 7 62
18 8 33
18 9 53
18 10 54
18 11 3
18 12 54
18 13 26
18 14 60
18 15 69
18 16 29
18 17 34
19 0 31
19 1 5
19 2 20
19 3 10
19 4 57
19 5 76
19 6 16
19 7 67
19 8 77
19 9 2
19 10 6
19 11 78
19 12 49
19 13 15
19 14 18
19 15 28
19 16 61
19 17 8
19 18 66
20 0 33
20 1 42
20 2 36
20 3 75
20 4 64
20 5 63
20 6 14
20 7 70
20 8 68
20 9 64
20 10 79
20 11 14
20 12 79
20 13 28
20 14 57
20 15 34
20 16 18
20 17 35
20 18 20
20 19 54
21 0 7
21 1 65
21 2 15
21 3 17
21 4 61
21 5 62
21 6 32
21 7 60
21 8 23
21 9 75
21 10 17
21 11 47
21 12 7
21 13 7
21 14 68
21 15 16
21 16 14
21 17 20
21 18 22
21 19 11
21 20 49
22 0 38
22 1 52
22 2 33
22 3 38
22 4 8
22 5 14
22 6 51
22 7 12
22 8 44
22 9 61
22 10 57
22 11 41
22 12 55
22 13 79
22 14 51
22 15 64
22 16 41
22 17 17
22 18 68
22 19 70
22 20 57
22 21 68
23 0 22
23 1 17
23 2 5
23 3 17
23 4 63
23 5 78
23 6 12
23 7 15
23 8 66
23 9 72
23 10 45
23 11 4
23 12 43
23 13 65
23 14 45
23 15 65
23 16 33
23 17 8
23 18 9
23 19 7
23 20 37
23 21 37
23 22 38
24 0 32
24 1 36
24 2 49
24 3 75
24 4 26
24 5 39
24 6 75
24 7 30
24 8 71
24 9 23
24 10 16
24 11 48
24 12 17
24 13 61
24 14 60
24 15 65
24 16 21
24 17 48
24 18 76
24 19 44
24 20 9
24 21 27
24 22 57
24 23 78
25 0 20
25 1 69
25 2 19
25 3 36
25 4 61
25 5 21
25 6 49
25 7 41
25 8 29
25 9 57
25 10 51
25 11 79
25 12 47
25 13 51
25 14 7
25 15 61
25 16 70
25 17 29
25 18 30
25 19 25
25 20 79
25 21 8
25 22 19
25 23 15
25 24 17
26 0 65
26 1 67
26 2 77
26 3 28
26 4 29
26 5 47
26 6 29
26 7 14
26 8 15
26 9 41
26 10 47
26 11 15
26 12 6
26 13 63
26 14 1
26 15 48
26 16 74
26 17 5
26 18 73
26 19 77
26 20 60
26 21 43
26 22 52
26 23 73
26 24 80
26 25 67
27 0 55
27 1 75
27 2 8
27 3 27
27 4 25
27 5 4
27 6 74
27 7 31
27 8 68
27 9 67
27 10 25
27 11 40
27 12 70
27 13 26
27 14 4
27 15 50
27 16 46
27 17 42
27 18 69
27 19 74
27 20 33
27 21 51
27 22 31
27 23 67
27 24 49
27 25 27
27 26 12
28 0 9
28 1 14
28 2 46
28 3 67
28 4 27
28 5 40
28 6 54
28 7 59
28 8 80
28 9 53
28 10 79
28 11 75
28 12 8
28 13 9
28 14 6
28 15 37
28 16 1
28 17 19
28 18 28
28 19 76
28 20 71
28 21 80
28 22 45
28 23 80
28 24 77
28 25 65
28 26 47
28 27 49
29 0 38
29 1 7
29 2 43
29 3 32
29 4 9
29 5 19
29 6 65
29 7 10
29 8 20
29 9 16
29 10 75
29 11 12
29 12 9
29 13 46
29 14 26
29 15 58
29 16 1
29 17 74
29 18 73
29 19 4
29 20 9
29 21 8
29 22 57
29 23 54
29 24 15
29 25 24
29 26 55
29 27 55
29 28 58
30 0 32
30 1 15
30 2 59
30 3 2
30 4 67
30 5 13
30 6 62
30 7 17
30 8 72
30 9 68
30 10 4
30 11 34
30 12 28
30 13 39
30 14 77
30 15 36
30 16 52
30 17 31
30 18 43
30 19 54
30 20 16
30 21 33
30 22 56
30 23 11
30 24 44
30 25 51
30 26 56
30 27 67
30 28 20
30 29 62
31 0 30
31 1 70
31 2 65
31 3 46
31 4 75
31 5 79
31 6 20
31 7 41
31 8 46
31 9 30
31 10 65
31 11 9
31 12 16
31 13 9
31 14 1
31 15 79
31 16 61
31 17 41
31 18 14
31 19 32
31 20 27
31 21 79
31 22 74
31 23 67
31 24 64
31 25 53
31 26 33
31 27 79
31 28 46
31 29 41
31 30 23
32 0 2
32 1 9
32 2 62
32 3 46
32 4 23
32 5 64
32 6 13
32 7 1
32 8 38
32 9 52
32 10 60
32 11 46
32 12 9
32 13 76
32 14 72
32 15 10
32 16 76
32 17 35
32 18 39
32 19 42
32 20 35
32 21 16
32 22 10
32 23 47
32 24 39
32 25 75
32 26 31
32 27 55
32 28 11
32 29 27
32 30 11
32 31 79
33 0 78
33 1 80
33 2 33
33 3 40
33 4 11
33 5 62
33 6 47
33 7 44
33 8 40
33 9 57
33 10 47
33 11 18
33 12 30
33 13 68
33 14 44
33 15 78
33 16 52
33 17 53
33 18 14
33 19 44
33 20 22
33 21 64
33 22 39
33 23 49
33 24 49
33 25 25
33 26 9
33 27 79
33 28 78
33 29 75
33 30 66
33 31 34
33 32 27
34 0 49
34 1 26
34 2 8
34 3 9
34 4 46
34 5 38
34 6 30
34 7 33
34 8 60
34 9 14
34 10 43
34 11 26
34 12 6
34 13 78
34 14 45
34 15 77
34 16 20
34 17 63
34 18 1
34 19 26
34 20 56
34 21 44
34 22 59
34 23 29
34 24 9
34 25 44
34 26 73
34 27 57
34 28 48
34 29 59
34 30 48
34 31 74
34 32 28
34 33 36
35 0 77
35 1 23
35 2 42
35 3 4
35 4 42
35 5 30
35 6 39
35 7 55
35 8 43
35 9 16
35 10 64
35 11 7
35 12 79
35 13 29
35 14 43
35 15 80
35 16 76
35 17 45
35 18 71
35 19 63
35 20 33
35 21 53
35 22 75
35 23 24
35 24 37
35 25 66
35 26 23
35 27 4
35 28 69
35 29 45
35 30 71
35 31 8
35 32 16
35 33 58
35 34 5
36 0 41
36 1 80
36 2 64
36 3 62
36 4 8
36 5 65
36 6 76
36 7 48
36 8 61
36 9 72
36 10 59
36 11 70
36 12 59
36 13 11
36 14 30
36 15 4
36 16 47
36 17 20
36 18 8
36 19 14
36 20 61
36 21 36
36 22 78
36 23 4
36 24 63
36 25 22
36 26 76
36 27 44
36 28 66
36 29 65
36 30 32
36 31 3
36 32 74
36 33 8
36 34 16
36 35 75
37 0 13
37 1 79
37 2 14
37 3 69
37 4 55
37 5 72
37 6 29
37 7 76
37 8 11
37 9 35
37 10 42
37 11 8
37 12 14
37 13 30
37 14 71
37 15 39
37 16 77
37 17 73
37 18 72
37 19 40
37 20 63
37 21 2
37 22 53
37 23 61
37 24 27
37 25 13
37 26 6
37 27 17
37 28 10
37 29 71
37 30 14
37 31 20
37 32 18
37 33 9
37 34 78
37 35 19
37 36 25
38 0 73
38 1 64
38 2 19
38 3 36
38 4 19
38 5 2
38 6 39
38 7 36
38 8 69
38 9 56
38 10 10
38 11 43
38 12 40
38 13 27
38 14 10
38 15 47
38 16 72
38 17 76
38 18 31
38 19 32
38 20 23
38 21 21
38 22 50
38 23 48
38 24 45
38 25 20
38 26 26
38 27 14
38 28 2
38 29 74
38 30 78
38 31 58
38 32 50
38 33 60
38 34 30
38 35 76
38 36 70
38 37 6
39 0 53
39 1 80
39 2 13
39 3 51
39 4 30
39 5 51
39 6 70
39 7 70
39 8 64
39 9 26
39 10 46
39 11 58
39 12 17
39 13 60
39 14 29
39 15 3
39 16 78
39 17 37
39 18 71
39 19 64
39 20 39
39 21 29
39 22 68
39 23 72
39 24 29
39 25 47
39 26 68
39 27 3
39 28 50
39 29 65
39 30 79
39 31 74
39 32 38
39 33 72
39 34 36
39 35 9
39 36 79
39 37 62
39 38 12
40 0 76
40 1 8
40 2 51
40 3 12
40 4 34
40 5 24
40 6 1
40 7 10
40 8 4
40 9 7
40 10 20
40 11 47
40 12 79
40 13 17
40 14 37
40 15 23
40 16 7
40 17 12
40 18 2
40 19 2
40 20 36
40 21 18
40 22 4
40 23 77
40 24 63
40 25 42
40 26 54
40 27 6
40 28 59
40 29 42
40 30 62
40 31 23
40 32 54
40 33 61
40 34 47
40 35 35
40 36 74
40 37 33
40 38 45
40 39 19
41 0 28
41 1 20
41 2 77
41 3 60
41 4 50
41 5 44
41 6 35
41 7 10
41 8 61
41 9 73
41 10 41
41 11 39
41 12 53
41 13 63
41 14 34
41 15 28
41 16 64
41 17 54
41 18 18
41 19 78
41 20 21
41 21 66
41 22 55
41 23 38
41 24 61
41 25 7
41 26 47
41 27 36
41 28 35
41 29 32
41 30 39
41 31 55
41 32 27
41 33 55
41 34 68
41 35 19
41 36 9
41 37 38
41 38 32
41 39 47
41 40 26
42 0 40
42 1 66
42 2 80
42 3 15
42 4 63
42 5 25
42 6 17
42 7 68
42 8 28
42 9 53
42 10 5
42 11 36
42 12 30
42 13 53
42 14 45
42 15 39
42 16 26
42 17 18
42 18 62
42 19 38
42 20 53
42 21 36
42 22 21
42 23 53
42 24 73
42 25 31
42 26 8
42 27 26
42 28 27
42 29 41
42 30 60
42 31 8
42 32 33
42 33 72
42 34 7
42 35 18
42 36 68
42 37 52
42 38 50
42 39 45
42 40 1
42 41 24
43 0 48
43 1 1
43 2 59
43 3 72
43 4 38
43 5 40
43 6 7
43 7 23
43 8 78
43 9 53
43 10 38
43 11 50
43 12 70
43 13 9
43 14 14
43 15 13
43 16 76
43 17 42
43 18 20
43 19 76
43 20 76
43 21 26
43 22 19
43 23 63
43 24 36
43 25 46
43 26 23
43 27 66
43 28 77
43 29 10
43 30 43
43 31 38
43 32 53
43 33 39
43 34 75
43 35 39
43 36 44
43 37 63
43 38 60
43 39 43
43 40 2
43 41 58
43 42 36
44 0 48
44 1 2
44 2 42
44 3 66
44 4 63
44 5 34
44 6 21
44 7 40
44 8 59
44 9 16
44 10 79
44 11 2
44 12 41
44 13 33
44 14 47
44 15 30
44 16 46
44 17 34
44 18 21
44 19 49
44 20 42
44 21 43
44 22 16
44 23 70
44 24 30
44 25 6
44 26 49
44 27 71
44 28 60
44 29 53
44 30 27
44 31 74
44 32 20
44 33 13
44 34 57
44 35 61
44 36 63
44 37 43
44 38 25
44 39 77
44 40 57
44 41 46
44 42 64
44 43 55
45 0 80
45 1 23
45 2 1
45 3 68
45 4 73
45 5 29
45 6 9
45 7 15
45 8 52
45 9 8
45 10 5
45 11 59
45 12 20
45 13 43
45 14 26
45 15 52
45 16 40
45 17 69
45 18 5
45 19 32
45 20 56
45 21 11
45 22 29
45 23 66
45 24 42
45 25 10
45 26 42
45 27 39
45 28 31
45 29 52
45 30 2
45 31 38
45 32 2
45 33 62
45 34 77
45 35 23
45 36 1
45 37 56
45 38 8
45 39 67
45 40 69
45 41 16
45 42 49
45 43 32
45 44 36
46 0 14
46 1 29
46 2 15
46 3 14
46 4 16
46 5 21
46 6 70
46 7 12
46 8 47
46 9 74
46 10 12
46 11 8
46 12 16
46 13 63
46 14 26
46 15 71
46 16 70
46 17 36
46 18 22
46 19 1
46 20 32
46 21 61
46 22 41
46 23 12
46 24 29
46 25 74
46 26 13
46 27 66
46 28 13
46 29 65
46 30 67
46 31 68
46 32 21
46 33 9
46 34 1
46 35 63
46 36 20
46 37 79
46 38 25
46 39 71
46 40 26
46 41 42
46 42 55
46 43 20
46 44 35
46 45 72
47 0 42
47 1 68
47 2 79
47 3 24
47 4 8
47 5 4
47 6 75
47 7 72
47 8 79
47 9 44
47 10 53
47 11 32
47 12 20
47 13 66
47 14 7
47 15 1
47 16 42
47 17 65
47 18 48
47 19 63
47 20 39
47 21 75
47 22 2
47 23 70
47 24 4
47 25 9
47 26 61
47 27 71
47 28 40
47 29 22
47 30 41
47 31 38
47 32 27
47 33 25
47 34 35
47 35 4
47 36 39
47 37 59
47 38 58
47 39 73
47 40 19
47 41 27
47 42 60
47 43 30
47 44 1
47 45 53
47 46 26
48 0 67
48 1 68
48 2 4
48 3 70
48 4 33
48 5 12
48 6 57
48 7 29
48 8 7
48 9 13
48 10 68
48 11 27
48 12 18
48 13 17
48 14 73
48 15 42
48 16 71
48 17 51
48 18 51
48 19 61
48 20 36
48 21 68
48 22 10
48 23 15
48 24 22
48 25 20
48 26 38
48 27 73
48 28 53
48 29 52
48 30 40
48 31 68
48 32 7
48 33 40
48 34 44
48 35 9
48 36 52
48 37 13
48 38 46
48 39 27
48 40 13
48 41 71
48 42 72
48 43 69
48 44 12
48 45 35
48 46 24
48 47 34
49 0 9
49 1 23
49 2 33
49 3 4
49 4 28
49 5 76
49 6 46
49 7 13
49 8 29
49 9 70
49 10 44
49 11 10
49 12 71
49 13 2
49 14 69
49 15 53
49 16 55
49 17 73
49 18 37
49 19 1
49 20 63
49 21 57
49 22 24
49 23 53
49 24 79
49 25 4
49 26 57
49 27 1
49 28 47
49 29 12
49 30 64
49 31 32
49 32 56
49 33 50
49 34 28
49 35 20
49 36 50
49 37 20
49 38 56
49 39 26
49 40 24
49 41 20
49 42 67
49 43 26
49 44 40
49 45 6
49 46 38
49 47 19
49 48 42
50 0 49
50 1 5
50 2 35
50 3 43
50 4 34
50 5 66
50 6 8
50 7 54
50 8 36
50 9 22
50 10 51
50 11 54
50 12 7
50 13 77
50 14 22
50 15 50
50 16 61
50 17 18
50 18 54
50 19 10
50 20 29
50 21 24
50 22 51
50 23 70
50 24 16
50 25 6
50 26 72
50 27 44
50 28 17
50 29 16
50 30 71
50 31 31
50 32 55
50 33 47
50 34 58
50 35 5
50 36 59
50 37 18
50 38 68
50 39 36
50 40 22
50 41 8
50 42 20
50 43 52
50 44 17
50 45 35
50 46 76
50 47 19
50 48 6
50 49 59
51 0 30
51 1 41
51 2 35
51 3 15
51 4 53
51 5 40
51 6 49
51 7 35
51 8 7
51 9 56
51 10 61
51 11 75
51 12 14
51 13 73
51 14 13
51 15 13
51 16 17
51 17 62
51 18 28
51 19 47
51 20 80
51 21 47
51 22 39
51 23 80
51 24 31
51 25 64
51 26 3
51 27 69
51 28 62
51 29 12
51 30 47
51 31 35
51 32 41
51 33 16
51 34 44
51 35 13
51 36 6
51 37 3
51 38 72
51 39 34
51 40 26
51 41 5
51 42 26
51 43 41
51 44 28
51 45 34
51 46 32
51 47 60
51 48 41
51 49 26
51 50 47
52 0 70
52 1 71
52 2 24
52 3 21
52 4 11
52 5 2
52 6 26
52 7 7
52 8 58
52 9 78
52 10 10
52 11 30
52 12 51
52 13 64
52 14 23
52 15 11
52 16 71
52 17 79
52 18 61
52 19 28
52 20 62
52 21 58
52 22 14
52 23 15
52 24 48
52 25 55
52 26 69
52 27 42
52 28 79
52 29 3
52 30 37
52 31 67
52 32 74
52 33 41
52 34 51
52 35 31
52 36 65
52 37 80
52 38 21
52 39 26
52 40 29
52 41 3
52 42 3
52 43 75
52 44 25
52 45 73
52 46 32
52 47 32
52 48 65
52 49 33
52 50 20
52 51 45
53 0 30
53 1 35
53 2 65
53 3 64
53 4 51
53 5 80
53 6 58
53 7 64
53 8 14
53 9 26
53 10 75
53 11 77
53 12 23
53 13 78
53 14 34
53 15 51
53 16 35
53 17 30
53 18 32
53 19 38
53 20 65
53 21 11
53 22 57
53 23 54
53 24 80
53 25 69
53 26 53
53 27 55
53 28 4
53 29 49
53 30 23
53 31 70
53 32 11
53 33 5
53 34 79
53 35 4
53 36 59
53 37 75
53 38 72
53 39 6
53 40 6
53 41 37
53 42 37
53 43 53
53 44 10
53 45 68
53 46 12
53 47 17
53 48 34
53 49 73
53 50 15
53 51 40
53 52 55
54 0 42
54 1 69
54 2 19
54 3 59
54 4 34
54 5 45
54 6 75
54 7 26
54 8 46
54 9 62
54 10 56
54 11 75
54 12 8
54 13 65
54 14 66
54 15 43
54 16 37
54 17 54
54 18 13
54 19 75
54 20 43
54 21 44
54 22 74
54 23 13
54 24 48
54 25 67
54 26 11
54 27 8
54 28 33
54 29 49
54 30 80
54 31 13
54 32 76
54 33 1
54 34 75
54 35 74
54 36 46
54 37 70
54 38 2
54 39 67
54 40 29
54 41 50
54 42 2
54 43 41
54 44 22
54 45 30
54 46 21
54 47 14
54 48 17
54 49 42
54 50 20
54 51 24
54 52 78
54 53 35
55 0 34
55 1 47
55 2 79
55 3 1
55 4 54
55 5 46
55 6 12
55 7 10
55 8 46
55 9 65
55 10 7
55 11 30
55 12 16
55 13 19
55 14 65
55 15 45
55 16 20
55 17 17
55 18 42
55 19 55
55 20 58
55 21 29
55 22 1
55 23 57
55 24 24
55 25 13
55 26 76
55 27 10
55 28 25
55 29 78
55 30 79
55 31 4
55 32 72
55 33 73
55 34 38
55 35 47
55 36 57
55 37 57
55 38 23
55 39 44
55 40 22
55 41 44
55 42 69
55 43 63
55 44 72
55 45 46
55 46 52
55 47 54
55 48 54
55 49 28
55 50 44
55 51 51
55 52 4
55 53 52
55 54 66
56 0 53
56 1 78
56 2 23
56 3 75
56 4 15
56 5 41
56 6 73
56 7 78
56 8 64
56 9 47
56 10 75
56 11 52
56 12 58
56 13 14
56 14 77
56 15 22
56 16 79
56 17 1
56 18 43
56 19 77
56 20 45
56 21 66
56 22 74
56 23 80
56 24 22
56 25 44
56 26 32
56 27 16
56 28 72
56 29 78
56 30 10
56 31 54
56 32 66
56 33 70
56 34 43
56 35 27
56 36 32
56 37 49
56 38 9
56 39 74
56 40 49
56 41 51
56 42 49
56 43 47
56 44 67
56 45 35
56 46 28
56 47 20
56 48 57
56 49 72
56 50 4
56 51 14
56 52 38
56 53 5
56 54 22
56 55 42
57 0 27
57 1 60
57 2 49
57 3 79
57 4 43
57 5 49
57 6 2
57 7 39
57 8 30
57 9 43
57 10 80
57 11 53
57 12 24
57 13 29
57 14 42
57 15 67
57 16 58
57 17 37
57 18 77
57 19 26
57 20 30
57 21 59
57 22 24
57 23 36
57 24 7
57 25 61
57 26 36
57 27 62
57 28 49
57 29 33
57 30 42
57 31 10
57 32 51
57 33 11
57 34 21
57 35 44
57 36 14
57 37 54
57 38 77
57 39 33
57 40 8
57 41 70
57 42 60
57 43 9
57 44 20
57 45 75
57 46 79
57 47 7
57 48 55
57 49 19
57 50 80
57 51 14
57 52 66
57 53 46
57 54 47
57 55 49
57 56 39
58 0 36
58 1 2
58 2 3
58 3 21
58 4 61
58 5 34
58 6 23
58 7 53
58 8 79
58 9 46
58 10 2
58 11 70
58 12 63
58 13 69
58 14 30
58 15 13
58 16 45
58 17 64
58 18 5
58 19 19
58 20 26
58 21 9
58 22 70
58 23 14
58 24 17
58 25 49
58 26 19
58 27 47
58 28 7
58 29 20
58 30 31
58 31 12
58 32 22
58 33 76
58 34 42
58 35 71
58 36 42
58 37 32
58 38 41
58 39 44
58 40 33
58 41 46
58 42 42
58 43 7
58 44 79
58 45 67
58 46 29
58 47 10
58 48 32
58 49 75
58 50 32
58 51 72
58 52 58
58 53 13
58 54 49
58 55 79
58 56 14
58 57 40
59 0 57
59 1 70
59 2 41
59 3 37
59 4 60
59 5 13
59 6 36
59 7 13
59 8 43
59 9 80
59 10 5
59 11 45
59 12 59
59 13 77
59 14 58
59 15 8
59 16 39
59 17 41
59 18 4
59 19 9
59 20 72
59 21 64
59 22 67
59 23 57
59 24 77
59 25 26
59 26 78
59 27 2
59 28 27
59 29 70
59 30 66
59 31 4
59 32 30
59 33 49
59 34 45
59 35 40
59 36 30
59 37 23
59 38 35
59 39 21
59 40 45
59 41 2
59 42 3
59 43 41
59 44 55
59 45 79
59 46 70
59 47 46
59 48 7
59 49 3
59 50 77
59 51 76
59 52 37
59 53 12
59 54 20
59 55 22
59 56 76
59 57 3
59 58 76
60 0 2
60 1 9
60 2 41
60 3 18
60 4 19
60 5 76
60 6 30
60 7 66
60 8 44
60 9 7
60 10 75
60 11 33
60 12 34
60 13 49
60 14 21
60 15 69
60 16 26
60 17 29
60 18 5
60 19 69
60 20 80
60 21 56
60 22 52
60 23 23
60 24 39
60 25 66
60 26 19
60 27 34
60 28 26
60 29 24
60 30 68
60 31 75
60 32 76
60 33 33
60 34 26
60 35 13
60 36 45
60 37 41
60 38 22
60 39 16
60 40 57
60 41 20
60 42 1
60 43 50
60 44 29
60 45 53
60 46 64
60 47 7
60 48 34
60 49 29
60 50 72
60 51 9
60 52 70
60 53 18
60 54 24
60 55 47
60 56 59
60 57 41
60 58 6
60 59 74
61 0 79
61 1 10
61 2 64
61 3 7
61 4 67
61 5 48
61 6 40
61 7 46
61 8 77
61 9 71
61 10 67
61 11 21
61 12 68
61 13 12
61 14 70
61 15 66
61 16 9
61 17 5
61 18 28
61 19 66
61 20 39
61 21 28
61 22 27
61 23 74
61 24 1
61 25 42
61 26 67
61 27 65
61 28 34
61 29 15
61 30 45
61 31 45
61 32 61
61 33 11
61 34 5
61 35 66
61 36 78
61 37 20
61 38 63
61 39 75
61 40 53
61 41 10
61 42 78
61 43 56
61 44 43
61 45 35
61 46 17
61 47 54
61 48 5
61 49 76
61 50 19
61 51 9
61 52 28
61 53 34
61 54 23
61 55 67
61 56 44
61 57 71
61 58 74
61 59 59
61 60 72
62 0 7
62 1 32
62 2 56
62 3 30
62 4 77
62 5 64
62 6 16
62 7 58
62 8 47
62 9 39
62 10 56
62 11 12
62 12 63
62 13 66
62 14 56
62 15 74
62 16 41
62 17 77
62 18 12
62 19 62
62 20 49
62 21 21
62 22 32
62 23 74
62 24 45
62 25 52
62 26 4
62 27 63
62 28 25
62 29 75
62 30 26
62 31 7
62 32 30
62 33 80
62 34 60
62 35 58
62 36 54
62 37 12
62 38 28
62 39 42
62 40 73
62 41 24
62 42 55
62 43 2
62 44 38
62 45 55
62 46 32
62 47 51
62 48 74
62 49 16
62 50 74
62 51 77
62 52 75
62 53 46
62 54 67
62 55 7
62 56 78
62 57 13
62 58 67
62 59 9
62 60 4
62 61 68
63 0 16
63 1 28
63 2 48
63 3 27
63 4 42
63 5 61
63 6 7
63 7 6
63 8 68
63 9 55
63 10 79
63 11 22
63 12 38
63 13 74
63 14 11
63 15 78
63 16 17
63 17 60
63 18 65
63 19 5
63 20 66
63 21 26
63 22 66
63 23 54
63 24 65
63 25 49
63 26 46
63 27 31
63 28 76
63 29 73
63 30 72
63 31 13
63 32 78
63 33 33
63 34 5
63 35 74
63 36 55
63 37 35
63 38 20
63 39 23
63 40 16
63 41 32
63 42 35
63 43 54
63 44 66
63 45 38
63 46 45
63 47 80
63 48 24
63 49 50
63 50 21
63 51 53
63 52 13
63 53 39
63 54 43
63 55 18
63 56 21
63 57 4
63 58 25
63 59 44
63 60 80
63 61 38
63 62 56
64 0 64
64 1 56
64 2 20
64 3 22
64 4 55
64 5 9
64 6 44
64 7 62
64 8 11
64 9 12
64 10 45
64 11 13
64 12 74
64 13 6
64 14 8
64 15 58
64 16 2
64 17 79
64 18 68
64 19 61
64 20 76
64 21 19
64 22 74
64 23 13
64 24 2
64 25 9
64 26 52
64 27 51
64 28 39
64 29 74
64 30 71
64 31 53
64 32 3
64 33 22
64 34 3
64 35 22
64 36 69
64 37 25
64 38 56
64 39 26
64 40 46
64 41 12
64 42 61
64 43 61
64 44 39
64 45 46
64 46 3
64 47 14
64 48 5
64 49 7
64 50 11
64 51 45
64 52 54
64 53 53
64 54 66
64 55 80
64 56 67
64 57 55
64 58 22
64 59 72
64 60 42
64 61 26
64 62 78
64 63 66
65 0 30
65 1 67
65 2 1
65 3 12
65 4 75
65 5 70
65 6 14
65 7 74
65 8 79
65 9 59
65 10 7
65 11 74
65 12 62
65 13 5
65 14 13
65 15 44
65 16 65
65 17 33
65 18 17
65 19 11
65 20 22
65 21 64
65 22 5
65 23 77
65 24 33
65 25 8
65 26 22
65 27 57
65 28 30
65 29 73
65 30 13
65 31 36
65 32 36
65 33 14
65 34 30
65 35 27
65 36 39
65 37 63
65 38 69
65 39 38
65 40 9
65 41 78
65 42 11
65 43 65
65 44 6
65 45 5
65 46 75
65 47 66
65 48 48
65 49 7
65 50 62
65 51 42
65 52 60
65 53 13
65 54 80
65 55 79
65 56 21
65 57 55
65 58 34
65 59 33
65 60 10
65 61 72
65 62 33
65 63 33
65 64 78
66 0 12
66 1 20
66 2 7
66 3 14
66 4 75
66 5 11
66 6 6
66 7 2
66 8 64
66 9 67
66 10 42
66 11 35
66 12 26
66 13 23
66 14 71
66 15 18
66 16 3
66 17 26
66 18 63
66 19 48
66 20 67
66 21 42
66 22 36
66 23 54
66 24 30
66 25 64
66 26 35
66 27 2
66 28 33
66 29 8
66 30 51
66 31 48
66 32 4
66 33 43
66 34 70
66 35 48
66 36 38
66 37 64
66 38 35
66 39 74
66 40 40
66 41 33
66 42 34
66 43 47
66 44 18
66 45 42
66 46 63
66 47 74
66 48 24
66 49 11
66 50 32
66 51 60
66 52 70
66 53 67
66 54 44
66 55 43
66 56 10
66 57 59
66 58 58
66 59 38
66 60 73
66 61 77
66 62 37
66 63 68
66 64 6
66 65 69
67 0 62
67 1 15
67 2 15
67 3 77
67 4 29
67 5 12
67 6 4
67 7 21
67 8 52
67 9 64
67 10 10
67 11 23
67 12 21
67 13 20
67 14 43
67 15 11
67 16 50
67 17 31
67 18 55
67 19 33
67 20 58
67 21 27
67 22 24
67 23 55
67 24 11
67 25 72
67 26 45
67 27 78
67 28 7
67 29 1
67 30 53
67 31 34
67 32 69
67 33 13
67 34 78
67 35 77
67 36 5
67 37 80
67 38 47
67 39 69
67 40 32
67 41 71
67 42 68
67 43 30
67 44 7
67 45 77
67 46 29
67 47 66
67 48 80
67 49 76
67 50 39
67 51 73
67 52 6
67 53 76
67 54 11
67 55 9
67 56 70
67 57 53
67 58 52
67 59 21
67 60 78
67 61 6
67 62 77
67 63 77
67 64 55
67 65 30
67 66 16
68 0 21
68 1 49
68 2 57
68 3 60
68 4 54
68 5 36
68 6 1
68 7 3
68 8 56
68 9 38
68 10 76
68 11 63
68 12 11
68 13 51
68 14 78
68 15 52
68 16 8
68 17 61
68 18 52
68 19 6
68 20 38
68 21 69
68 22 79
68 23 3
68 24 1
68 25 16
68 26 45
68 27 15
68 28 51
68 29 47
68 30 22
68 31 10
68 32 28
68 33 26
68 34 24
68 35 11
68 36 7
68 37 37
68 38 52
68 39 46
68 40 16
68 41 42
68 42 14
68 43 49
68 44 32
68 45 57
68 46 2
68 47 14
68 48 55
68 49 31
68 50 76
68 51 15
68 52 3
68 53 11
68 54 68
68 55 40
68 56 30
68 57 75
68 58 44
68 59 6
68 60 73
68 61 13
68 62 62
68 63 24
68 64 54
68 65 17
68 66 41
68 67 55
69 0 21
69 1 39
69 2 38
69 3 1
69 4 57
69 5 45
69 6 39
69 7 65
69 8 20
69 9 69
69 10 49
69 11 1
69 12 23
69 13 33
69 14 44
69 15 51
69 16 68
69 17 25
69 18 67
69 19 15
69 20 30
69 21 67
69 22 37
69 23 18
69 24 41
69 25 51
69 26 15
69 27 79
69 28 42
69 29 26
69 30 57
69 31 7
69 32 6
69 33 23
69 34 24
69 35 73
69 36 73
69 37 49
69 38 51
69 39 1
69 40 36
69 41 41
69 42 4
69 43 45
69 44 28
69 45 50
69 46 18
69 47 79
69 48 49
69 49 75
69 50 13
69 51 77
69 52 63
69 53 31
69 54 4
69 55 47
69 56 24
69 57 24
69 58 8
69 59 42
69 60 73
69 61 18
69 62 65
69 63 15
69 64 3
69 65 64
69 66 72
69 67 27
69 68 15
